db/data/10335114061983327954314213708377427828.z3.out
sat
-------------------
270.172730415
